(set-info :smt-lib-version 2.6)
(set-logic QF_BV)
(set-info :source |
Generated by: Maximilian A. Zinkus
Generated on: 2022-10-12
Generator: MCMPC
Application: Model counting optimization for MPC functionalities
Target solver: CryptoMinisat, Z3
|)
(set-info :license "https://creativecommons.org/licenses/by/4.0/")
(set-info :category "industrial")
(set-info :status unknown)
(declare-fun chosen_0 () Bool)
(declare-fun chosen () (_ BitVec 36))
(declare-fun chosen_1 () Bool)
(declare-fun chosen_2 () Bool)
(declare-fun chosen_3 () Bool)
(declare-fun chosen_4 () Bool)
(declare-fun chosen_5 () Bool)
(declare-fun chosen_6 () Bool)
(declare-fun chosen_7 () Bool)
(declare-fun chosen_8 () Bool)
(declare-fun chosen_9 () Bool)
(declare-fun chosen_10 () Bool)
(declare-fun chosen_11 () Bool)
(declare-fun chosen_12 () Bool)
(declare-fun chosen_13 () Bool)
(declare-fun chosen_14 () Bool)
(declare-fun chosen_15 () Bool)
(declare-fun chosen_16 () Bool)
(declare-fun chosen_17 () Bool)
(declare-fun chosen_18 () Bool)
(declare-fun chosen_19 () Bool)
(declare-fun chosen_20 () Bool)
(declare-fun chosen_21 () Bool)
(declare-fun chosen_22 () Bool)
(declare-fun chosen_23 () Bool)
(declare-fun chosen_24 () Bool)
(declare-fun chosen_25 () Bool)
(declare-fun chosen_26 () Bool)
(declare-fun chosen_27 () Bool)
(declare-fun chosen_28 () Bool)
(declare-fun chosen_29 () Bool)
(declare-fun chosen_30 () Bool)
(declare-fun chosen_31 () Bool)
(declare-fun chosen_32 () Bool)
(declare-fun chosen_33 () Bool)
(declare-fun chosen_34 () Bool)
(declare-fun chosen_35 () Bool)
(declare-fun target_0 () Bool)
(declare-fun target () (_ BitVec 36))
(declare-fun target_1 () Bool)
(declare-fun target_2 () Bool)
(declare-fun target_3 () Bool)
(declare-fun target_4 () Bool)
(declare-fun target_5 () Bool)
(declare-fun target_6 () Bool)
(declare-fun target_7 () Bool)
(declare-fun target_8 () Bool)
(declare-fun target_9 () Bool)
(declare-fun target_10 () Bool)
(declare-fun target_11 () Bool)
(declare-fun target_12 () Bool)
(declare-fun target_13 () Bool)
(declare-fun target_14 () Bool)
(declare-fun target_15 () Bool)
(declare-fun target_16 () Bool)
(declare-fun target_17 () Bool)
(declare-fun target_18 () Bool)
(declare-fun target_19 () Bool)
(declare-fun target_20 () Bool)
(declare-fun target_21 () Bool)
(declare-fun target_22 () Bool)
(declare-fun target_23 () Bool)
(declare-fun target_24 () Bool)
(declare-fun target_25 () Bool)
(declare-fun target_26 () Bool)
(declare-fun target_27 () Bool)
(declare-fun target_28 () Bool)
(declare-fun target_29 () Bool)
(declare-fun target_30 () Bool)
(declare-fun target_31 () Bool)
(declare-fun target_32 () Bool)
(declare-fun target_33 () Bool)
(declare-fun target_34 () Bool)
(declare-fun target_35 () Bool)
(declare-fun target_outcome0_t0 () (_ BitVec 36))
(declare-fun chosen_outcome0 () (_ BitVec 36))
(declare-fun target_outcome1_t0 () (_ BitVec 36))
(declare-fun chosen_outcome1 () (_ BitVec 36))
(declare-fun target_bit_0_0_bool () Bool)
(declare-fun target_bit_0_1_bool () Bool)
(declare-fun target_bit_0_2_bool () Bool)
(declare-fun target_bit_0_3_bool () Bool)
(declare-fun target_bit_0_4_bool () Bool)
(declare-fun target_bit_0_5_bool () Bool)
(declare-fun target_bit_0_6_bool () Bool)
(declare-fun target_bit_0_7_bool () Bool)
(declare-fun target_bit_0_8_bool () Bool)
(declare-fun target_bit_0_9_bool () Bool)
(declare-fun target_bit_0_10_bool () Bool)
(declare-fun target_bit_0_11_bool () Bool)
(declare-fun target_bit_0_12_bool () Bool)
(declare-fun target_bit_0_13_bool () Bool)
(declare-fun target_bit_0_14_bool () Bool)
(declare-fun target_bit_0_15_bool () Bool)
(declare-fun target_bit_0_16_bool () Bool)
(declare-fun target_bit_0_17_bool () Bool)
(declare-fun target_bit_0_18_bool () Bool)
(declare-fun target_bit_0_19_bool () Bool)
(declare-fun target_bit_0_20_bool () Bool)
(declare-fun target_bit_0_21_bool () Bool)
(declare-fun target_bit_0_22_bool () Bool)
(declare-fun target_bit_0_23_bool () Bool)
(declare-fun target_bit_0_24_bool () Bool)
(declare-fun target_bit_0_25_bool () Bool)
(declare-fun target_bit_0_26_bool () Bool)
(declare-fun target_bit_0_27_bool () Bool)
(declare-fun target_bit_0_28_bool () Bool)
(declare-fun target_bit_0_29_bool () Bool)
(declare-fun target_bit_0_30_bool () Bool)
(declare-fun target_bit_1_0_bool () Bool)
(declare-fun target_bit_1_1_bool () Bool)
(declare-fun target_bit_1_2_bool () Bool)
(declare-fun target_bit_1_3_bool () Bool)
(declare-fun target_bit_1_4_bool () Bool)
(declare-fun target_bit_1_5_bool () Bool)
(declare-fun target_bit_1_6_bool () Bool)
(declare-fun target_bit_1_7_bool () Bool)
(declare-fun target_bit_1_8_bool () Bool)
(declare-fun target_bit_1_9_bool () Bool)
(declare-fun target_bit_1_10_bool () Bool)
(declare-fun target_bit_1_11_bool () Bool)
(declare-fun target_bit_1_12_bool () Bool)
(declare-fun target_bit_1_13_bool () Bool)
(declare-fun target_bit_1_14_bool () Bool)
(declare-fun target_bit_1_15_bool () Bool)
(declare-fun target_bit_1_16_bool () Bool)
(declare-fun target_bit_1_17_bool () Bool)
(declare-fun target_bit_1_18_bool () Bool)
(declare-fun target_bit_1_19_bool () Bool)
(declare-fun target_bit_1_20_bool () Bool)
(declare-fun target_bit_1_21_bool () Bool)
(declare-fun target_bit_1_22_bool () Bool)
(declare-fun target_bit_1_23_bool () Bool)
(declare-fun target_bit_1_24_bool () Bool)
(declare-fun target_bit_1_25_bool () Bool)
(declare-fun target_bit_1_26_bool () Bool)
(declare-fun target_bit_1_27_bool () Bool)
(declare-fun target_bit_1_28_bool () Bool)
(declare-fun target_bit_1_29_bool () Bool)
(declare-fun target_bit_1_30_bool () Bool)
(assert
 (= (= (_ bv1 1) ((_ extract 0 0) chosen)) (= chosen_0 true)))
(assert
 (= (= (_ bv1 1) ((_ extract 1 1) chosen)) (= chosen_1 true)))
(assert
 (= (= (_ bv1 1) ((_ extract 2 2) chosen)) (= chosen_2 true)))
(assert
 (= (= (_ bv1 1) ((_ extract 3 3) chosen)) (= chosen_3 true)))
(assert
 (= (= (_ bv1 1) ((_ extract 4 4) chosen)) (= chosen_4 true)))
(assert
 (= (= (_ bv1 1) ((_ extract 5 5) chosen)) (= chosen_5 true)))
(assert
 (= (= (_ bv1 1) ((_ extract 6 6) chosen)) (= chosen_6 true)))
(assert
 (= (= (_ bv1 1) ((_ extract 7 7) chosen)) (= chosen_7 true)))
(assert
 (= (= (_ bv1 1) ((_ extract 8 8) chosen)) (= chosen_8 true)))
(assert
 (= (= (_ bv1 1) ((_ extract 9 9) chosen)) (= chosen_9 true)))
(assert
 (= (= (_ bv1 1) ((_ extract 10 10) chosen)) (= chosen_10 true)))
(assert
 (= (= (_ bv1 1) ((_ extract 11 11) chosen)) (= chosen_11 true)))
(assert
 (= (= (_ bv1 1) ((_ extract 12 12) chosen)) (= chosen_12 true)))
(assert
 (= (= (_ bv1 1) ((_ extract 13 13) chosen)) (= chosen_13 true)))
(assert
 (= (= (_ bv1 1) ((_ extract 14 14) chosen)) (= chosen_14 true)))
(assert
 (= (= (_ bv1 1) ((_ extract 15 15) chosen)) (= chosen_15 true)))
(assert
 (= (= (_ bv1 1) ((_ extract 16 16) chosen)) (= chosen_16 true)))
(assert
 (= (= (_ bv1 1) ((_ extract 17 17) chosen)) (= chosen_17 true)))
(assert
 (= (= (_ bv1 1) ((_ extract 18 18) chosen)) (= chosen_18 true)))
(assert
 (= (= (_ bv1 1) ((_ extract 19 19) chosen)) (= chosen_19 true)))
(assert
 (= (= (_ bv1 1) ((_ extract 20 20) chosen)) (= chosen_20 true)))
(assert
 (= (= (_ bv1 1) ((_ extract 21 21) chosen)) (= chosen_21 true)))
(assert
 (= (= (_ bv1 1) ((_ extract 22 22) chosen)) (= chosen_22 true)))
(assert
 (= (= (_ bv1 1) ((_ extract 23 23) chosen)) (= chosen_23 true)))
(assert
 (= (= (_ bv1 1) ((_ extract 24 24) chosen)) (= chosen_24 true)))
(assert
 (= (= (_ bv1 1) ((_ extract 25 25) chosen)) (= chosen_25 true)))
(assert
 (= (= (_ bv1 1) ((_ extract 26 26) chosen)) (= chosen_26 true)))
(assert
 (= (= (_ bv1 1) ((_ extract 27 27) chosen)) (= chosen_27 true)))
(assert
 (= (= (_ bv1 1) ((_ extract 28 28) chosen)) (= chosen_28 true)))
(assert
 (= (= (_ bv1 1) ((_ extract 29 29) chosen)) (= chosen_29 true)))
(assert
 (= (= (_ bv1 1) ((_ extract 30 30) chosen)) (= chosen_30 true)))
(assert
 (= (= (_ bv1 1) ((_ extract 31 31) chosen)) (= chosen_31 true)))
(assert
 (= (= (_ bv1 1) ((_ extract 32 32) chosen)) (= chosen_32 true)))
(assert
 (= (= (_ bv1 1) ((_ extract 33 33) chosen)) (= chosen_33 true)))
(assert
 (= (= (_ bv1 1) ((_ extract 34 34) chosen)) (= chosen_34 true)))
(assert
 (= (= (_ bv1 1) ((_ extract 35 35) chosen)) (= chosen_35 true)))
(assert
 (= (= (_ bv1 1) ((_ extract 0 0) target)) (= target_0 true)))
(assert
 (= (= (_ bv1 1) ((_ extract 1 1) target)) (= target_1 true)))
(assert
 (= (= (_ bv1 1) ((_ extract 2 2) target)) (= target_2 true)))
(assert
 (= (= (_ bv1 1) ((_ extract 3 3) target)) (= target_3 true)))
(assert
 (= (= (_ bv1 1) ((_ extract 4 4) target)) (= target_4 true)))
(assert
 (= (= (_ bv1 1) ((_ extract 5 5) target)) (= target_5 true)))
(assert
 (= (= (_ bv1 1) ((_ extract 6 6) target)) (= target_6 true)))
(assert
 (= (= (_ bv1 1) ((_ extract 7 7) target)) (= target_7 true)))
(assert
 (= (= (_ bv1 1) ((_ extract 8 8) target)) (= target_8 true)))
(assert
 (= (= (_ bv1 1) ((_ extract 9 9) target)) (= target_9 true)))
(assert
 (= (= (_ bv1 1) ((_ extract 10 10) target)) (= target_10 true)))
(assert
 (= (= (_ bv1 1) ((_ extract 11 11) target)) (= target_11 true)))
(assert
 (= (= (_ bv1 1) ((_ extract 12 12) target)) (= target_12 true)))
(assert
 (= (= (_ bv1 1) ((_ extract 13 13) target)) (= target_13 true)))
(assert
 (= (= (_ bv1 1) ((_ extract 14 14) target)) (= target_14 true)))
(assert
 (= (= (_ bv1 1) ((_ extract 15 15) target)) (= target_15 true)))
(assert
 (= (= (_ bv1 1) ((_ extract 16 16) target)) (= target_16 true)))
(assert
 (= (= (_ bv1 1) ((_ extract 17 17) target)) (= target_17 true)))
(assert
 (= (= (_ bv1 1) ((_ extract 18 18) target)) (= target_18 true)))
(assert
 (= (= (_ bv1 1) ((_ extract 19 19) target)) (= target_19 true)))
(assert
 (= (= (_ bv1 1) ((_ extract 20 20) target)) (= target_20 true)))
(assert
 (= (= (_ bv1 1) ((_ extract 21 21) target)) (= target_21 true)))
(assert
 (= (= (_ bv1 1) ((_ extract 22 22) target)) (= target_22 true)))
(assert
 (= (= (_ bv1 1) ((_ extract 23 23) target)) (= target_23 true)))
(assert
 (= (= (_ bv1 1) ((_ extract 24 24) target)) (= target_24 true)))
(assert
 (= (= (_ bv1 1) ((_ extract 25 25) target)) (= target_25 true)))
(assert
 (= (= (_ bv1 1) ((_ extract 26 26) target)) (= target_26 true)))
(assert
 (= (= (_ bv1 1) ((_ extract 27 27) target)) (= target_27 true)))
(assert
 (= (= (_ bv1 1) ((_ extract 28 28) target)) (= target_28 true)))
(assert
 (= (= (_ bv1 1) ((_ extract 29 29) target)) (= target_29 true)))
(assert
 (= (= (_ bv1 1) ((_ extract 30 30) target)) (= target_30 true)))
(assert
 (= (= (_ bv1 1) ((_ extract 31 31) target)) (= target_31 true)))
(assert
 (= (= (_ bv1 1) ((_ extract 32 32) target)) (= target_32 true)))
(assert
 (= (= (_ bv1 1) ((_ extract 33 33) target)) (= target_33 true)))
(assert
 (= (= (_ bv1 1) ((_ extract 34 34) target)) (= target_34 true)))
(assert
 (= (= (_ bv1 1) ((_ extract 35 35) target)) (= target_35 true)))
(assert
 (let (($x382 (not (bvuge (bvmul chosen_outcome0 (_ bv140001 36)) (bvadd (_ bv12000000000 36) target_outcome0_t0)))))
 (= (_ bv0 1) (ite (bvuge chosen_outcome0 (_ bv490849 36)) (_ bv0 1) (ite $x382 (_ bv1 1) (_ bv0 1))))))
(assert
 (let (($x445 (not (bvuge (bvmul chosen_outcome1 (_ bv140001 36)) (bvadd (_ bv12000000000 36) target_outcome1_t0)))))
 (= (_ bv1 1) (ite (bvuge chosen_outcome1 (_ bv490849 36)) (_ bv0 1) (ite $x445 (_ bv1 1) (_ bv0 1))))))
(assert
 (let (($x2827 (bvuge (_ bv46972 36) (_ bv490849 36))))
 (let ((?x3876 (ite $x2827 (_ bv0 1) (ite (not (bvuge (bvmul (_ bv46972 36) (_ bv140001 36)) (bvadd (_ bv12000000000 36) target))) (_ bv1 1) (_ bv0 1)))))
 (= (_ bv1 1) ?x3876))))
(assert
 (let ((?x4340 (ite (not (bvuge (bvmul (_ bv46972 36) (_ bv140001 36)) (bvadd (_ bv12000000000 36) target_outcome0_t0))) (_ bv1 1) (_ bv0 1))))
 (let (($x2827 (bvuge (_ bv46972 36) (_ bv490849 36))))
 (= (_ bv1 1) (ite $x2827 (_ bv0 1) ?x4340)))))
(assert
 (not (= (_ bv46972 36) chosen)))
(assert
 (let (($x1981 (bvuge (_ bv184351 36) (_ bv490849 36))))
 (let ((?x6923 (ite $x1981 (_ bv0 1) (ite (not (bvuge (bvmul (_ bv184351 36) (_ bv140001 36)) (bvadd (_ bv12000000000 36) target))) (_ bv1 1) (_ bv0 1)))))
 (= (_ bv1 1) ?x6923))))
(assert
 (let ((?x1798 (ite (not (bvuge (bvmul (_ bv184351 36) (_ bv140001 36)) (bvadd (_ bv12000000000 36) target_outcome0_t0))) (_ bv1 1) (_ bv0 1))))
 (let (($x1981 (bvuge (_ bv184351 36) (_ bv490849 36))))
 (= (_ bv1 1) (ite $x1981 (_ bv0 1) ?x1798)))))
(assert
 (not (= (_ bv184351 36) chosen)))
(assert
 (let (($x852 (bvuge (_ bv384973 36) (_ bv490849 36))))
 (let ((?x500 (ite $x852 (_ bv0 1) (ite (not (bvuge (bvmul (_ bv384973 36) (_ bv140001 36)) (bvadd (_ bv12000000000 36) target))) (_ bv1 1) (_ bv0 1)))))
 (= (_ bv0 1) ?x500))))
(assert
 (let ((?x29388 (ite (not (bvuge (bvmul (_ bv384973 36) (_ bv140001 36)) (bvadd (_ bv12000000000 36) target_outcome1_t0))) (_ bv1 1) (_ bv0 1))))
 (let (($x852 (bvuge (_ bv384973 36) (_ bv490849 36))))
 (= (_ bv0 1) (ite $x852 (_ bv0 1) ?x29388)))))
(assert
 (not (= (_ bv384973 36) chosen)))
(assert
 (let (($x882 (bvuge (_ bv290560 36) (_ bv490849 36))))
 (let ((?x11077 (ite $x882 (_ bv0 1) (ite (not (bvuge (bvmul (_ bv290560 36) (_ bv140001 36)) (bvadd (_ bv12000000000 36) target))) (_ bv1 1) (_ bv0 1)))))
 (= (_ bv0 1) ?x11077))))
(assert
 (let ((?x26254 (ite (not (bvuge (bvmul (_ bv290560 36) (_ bv140001 36)) (bvadd (_ bv12000000000 36) target_outcome1_t0))) (_ bv1 1) (_ bv0 1))))
 (let (($x882 (bvuge (_ bv290560 36) (_ bv490849 36))))
 (= (_ bv0 1) (ite $x882 (_ bv0 1) ?x26254)))))
(assert
 (not (= (_ bv290560 36) chosen)))
(assert
 (let (($x26327 (bvuge (_ bv245496 36) (_ bv490849 36))))
 (let ((?x18051 (ite $x26327 (_ bv0 1) (ite (not (bvuge (bvmul (_ bv245496 36) (_ bv140001 36)) (bvadd (_ bv12000000000 36) target))) (_ bv1 1) (_ bv0 1)))))
 (= (_ bv1 1) ?x18051))))
(assert
 (let ((?x5811 (ite (not (bvuge (bvmul (_ bv245496 36) (_ bv140001 36)) (bvadd (_ bv12000000000 36) target_outcome0_t0))) (_ bv1 1) (_ bv0 1))))
 (let (($x26327 (bvuge (_ bv245496 36) (_ bv490849 36))))
 (= (_ bv1 1) (ite $x26327 (_ bv0 1) ?x5811)))))
(assert
 (not (= (_ bv245496 36) chosen)))
(assert
 (let (($x2793 (bvuge (_ bv267173 36) (_ bv490849 36))))
 (let ((?x14502 (ite $x2793 (_ bv0 1) (ite (not (bvuge (bvmul (_ bv267173 36) (_ bv140001 36)) (bvadd (_ bv12000000000 36) target))) (_ bv1 1) (_ bv0 1)))))
 (= (_ bv0 1) ?x14502))))
(assert
 (let ((?x4133 (ite (not (bvuge (bvmul (_ bv267173 36) (_ bv140001 36)) (bvadd (_ bv12000000000 36) target_outcome1_t0))) (_ bv1 1) (_ bv0 1))))
 (let (($x2793 (bvuge (_ bv267173 36) (_ bv490849 36))))
 (= (_ bv0 1) (ite $x2793 (_ bv0 1) ?x4133)))))
(assert
 (not (= (_ bv267173 36) chosen)))
(assert
 (let (($x26026 (bvuge (_ bv253990 36) (_ bv490849 36))))
 (let ((?x10760 (ite $x26026 (_ bv0 1) (ite (not (bvuge (bvmul (_ bv253990 36) (_ bv140001 36)) (bvadd (_ bv12000000000 36) target))) (_ bv1 1) (_ bv0 1)))))
 (= (_ bv1 1) ?x10760))))
(assert
 (let ((?x22627 (ite (not (bvuge (bvmul (_ bv253990 36) (_ bv140001 36)) (bvadd (_ bv12000000000 36) target_outcome0_t0))) (_ bv1 1) (_ bv0 1))))
 (let (($x26026 (bvuge (_ bv253990 36) (_ bv490849 36))))
 (= (_ bv1 1) (ite $x26026 (_ bv0 1) ?x22627)))))
(assert
 (not (= (_ bv253990 36) chosen)))
(assert
 (let (($x31578 (bvuge (_ bv257105 36) (_ bv490849 36))))
 (let ((?x17753 (ite $x31578 (_ bv0 1) (ite (not (bvuge (bvmul (_ bv257105 36) (_ bv140001 36)) (bvadd (_ bv12000000000 36) target))) (_ bv1 1) (_ bv0 1)))))
 (= (_ bv1 1) ?x17753))))
(assert
 (let ((?x10267 (ite (not (bvuge (bvmul (_ bv257105 36) (_ bv140001 36)) (bvadd (_ bv12000000000 36) target_outcome0_t0))) (_ bv1 1) (_ bv0 1))))
 (let (($x31578 (bvuge (_ bv257105 36) (_ bv490849 36))))
 (= (_ bv1 1) (ite $x31578 (_ bv0 1) ?x10267)))))
(assert
 (not (= (_ bv257105 36) chosen)))
(assert
 (let (($x19399 (bvuge (_ bv265998 36) (_ bv490849 36))))
 (let ((?x5218 (ite $x19399 (_ bv0 1) (ite (not (bvuge (bvmul (_ bv265998 36) (_ bv140001 36)) (bvadd (_ bv12000000000 36) target))) (_ bv1 1) (_ bv0 1)))))
 (= (_ bv0 1) ?x5218))))
(assert
 (let ((?x28282 (ite (not (bvuge (bvmul (_ bv265998 36) (_ bv140001 36)) (bvadd (_ bv12000000000 36) target_outcome1_t0))) (_ bv1 1) (_ bv0 1))))
 (let (($x19399 (bvuge (_ bv265998 36) (_ bv490849 36))))
 (= (_ bv0 1) (ite $x19399 (_ bv0 1) ?x28282)))))
(assert
 (not (= (_ bv265998 36) chosen)))
(assert
 (let (($x29047 (bvuge (_ bv261182 36) (_ bv490849 36))))
 (let ((?x29065 (ite $x29047 (_ bv0 1) (ite (not (bvuge (bvmul (_ bv261182 36) (_ bv140001 36)) (bvadd (_ bv12000000000 36) target))) (_ bv1 1) (_ bv0 1)))))
 (= (_ bv1 1) ?x29065))))
(assert
 (let ((?x31589 (ite (not (bvuge (bvmul (_ bv261182 36) (_ bv140001 36)) (bvadd (_ bv12000000000 36) target_outcome0_t0))) (_ bv1 1) (_ bv0 1))))
 (let (($x29047 (bvuge (_ bv261182 36) (_ bv490849 36))))
 (= (_ bv1 1) (ite $x29047 (_ bv0 1) ?x31589)))))
(assert
 (not (= (_ bv261182 36) chosen)))
(assert
 (= chosen chosen_outcome0))
(assert
 (= chosen chosen_outcome1))
(assert
 (= (= (_ bv1 1) ((_ extract 0 0) target_outcome0_t0)) (= target_bit_0_0_bool true)))
(assert
 (= (= (_ bv1 1) ((_ extract 1 1) target_outcome0_t0)) (= target_bit_0_1_bool true)))
(assert
 (= (= (_ bv1 1) ((_ extract 2 2) target_outcome0_t0)) (= target_bit_0_2_bool true)))
(assert
 (= (= (_ bv1 1) ((_ extract 3 3) target_outcome0_t0)) (= target_bit_0_3_bool true)))
(assert
 (= (= (_ bv1 1) ((_ extract 4 4) target_outcome0_t0)) (= target_bit_0_4_bool true)))
(assert
 (= (= (_ bv1 1) ((_ extract 5 5) target_outcome0_t0)) (= target_bit_0_5_bool true)))
(assert
 (= (= (_ bv1 1) ((_ extract 6 6) target_outcome0_t0)) (= target_bit_0_6_bool true)))
(assert
 (= (= (_ bv1 1) ((_ extract 7 7) target_outcome0_t0)) (= target_bit_0_7_bool true)))
(assert
 (= (= (_ bv1 1) ((_ extract 8 8) target_outcome0_t0)) (= target_bit_0_8_bool true)))
(assert
 (= (= (_ bv1 1) ((_ extract 9 9) target_outcome0_t0)) (= target_bit_0_9_bool true)))
(assert
 (= (= (_ bv1 1) ((_ extract 10 10) target_outcome0_t0)) (= target_bit_0_10_bool true)))
(assert
 (= (= (_ bv1 1) ((_ extract 11 11) target_outcome0_t0)) (= target_bit_0_11_bool true)))
(assert
 (= (= (_ bv1 1) ((_ extract 12 12) target_outcome0_t0)) (= target_bit_0_12_bool true)))
(assert
 (= (= (_ bv1 1) ((_ extract 13 13) target_outcome0_t0)) (= target_bit_0_13_bool true)))
(assert
 (= (= (_ bv1 1) ((_ extract 14 14) target_outcome0_t0)) (= target_bit_0_14_bool true)))
(assert
 (= (= (_ bv1 1) ((_ extract 15 15) target_outcome0_t0)) (= target_bit_0_15_bool true)))
(assert
 (= (= (_ bv1 1) ((_ extract 16 16) target_outcome0_t0)) (= target_bit_0_16_bool true)))
(assert
 (= (= (_ bv1 1) ((_ extract 17 17) target_outcome0_t0)) (= target_bit_0_17_bool true)))
(assert
 (= (= (_ bv1 1) ((_ extract 18 18) target_outcome0_t0)) (= target_bit_0_18_bool true)))
(assert
 (= (= (_ bv1 1) ((_ extract 19 19) target_outcome0_t0)) (= target_bit_0_19_bool true)))
(assert
 (= (= (_ bv1 1) ((_ extract 20 20) target_outcome0_t0)) (= target_bit_0_20_bool true)))
(assert
 (= (= (_ bv1 1) ((_ extract 21 21) target_outcome0_t0)) (= target_bit_0_21_bool true)))
(assert
 (= (= (_ bv1 1) ((_ extract 22 22) target_outcome0_t0)) (= target_bit_0_22_bool true)))
(assert
 (= (= (_ bv1 1) ((_ extract 23 23) target_outcome0_t0)) (= target_bit_0_23_bool true)))
(assert
 (= (= (_ bv1 1) ((_ extract 24 24) target_outcome0_t0)) (= target_bit_0_24_bool true)))
(assert
 (= (= (_ bv1 1) ((_ extract 25 25) target_outcome0_t0)) (= target_bit_0_25_bool true)))
(assert
 (= (= (_ bv1 1) ((_ extract 26 26) target_outcome0_t0)) (= target_bit_0_26_bool true)))
(assert
 (= (= (_ bv1 1) ((_ extract 27 27) target_outcome0_t0)) (= target_bit_0_27_bool true)))
(assert
 (= (= (_ bv1 1) ((_ extract 28 28) target_outcome0_t0)) (= target_bit_0_28_bool true)))
(assert
 (= (= (_ bv1 1) ((_ extract 29 29) target_outcome0_t0)) (= target_bit_0_29_bool true)))
(assert
 (= (= (_ bv1 1) ((_ extract 30 30) target_outcome0_t0)) (= target_bit_0_30_bool true)))
(assert
 (= (= (_ bv1 1) ((_ extract 0 0) target_outcome1_t0)) (= target_bit_1_0_bool true)))
(assert
 (= (= (_ bv1 1) ((_ extract 1 1) target_outcome1_t0)) (= target_bit_1_1_bool true)))
(assert
 (= (= (_ bv1 1) ((_ extract 2 2) target_outcome1_t0)) (= target_bit_1_2_bool true)))
(assert
 (= (= (_ bv1 1) ((_ extract 3 3) target_outcome1_t0)) (= target_bit_1_3_bool true)))
(assert
 (= (= (_ bv1 1) ((_ extract 4 4) target_outcome1_t0)) (= target_bit_1_4_bool true)))
(assert
 (= (= (_ bv1 1) ((_ extract 5 5) target_outcome1_t0)) (= target_bit_1_5_bool true)))
(assert
 (= (= (_ bv1 1) ((_ extract 6 6) target_outcome1_t0)) (= target_bit_1_6_bool true)))
(assert
 (= (= (_ bv1 1) ((_ extract 7 7) target_outcome1_t0)) (= target_bit_1_7_bool true)))
(assert
 (= (= (_ bv1 1) ((_ extract 8 8) target_outcome1_t0)) (= target_bit_1_8_bool true)))
(assert
 (= (= (_ bv1 1) ((_ extract 9 9) target_outcome1_t0)) (= target_bit_1_9_bool true)))
(assert
 (= (= (_ bv1 1) ((_ extract 10 10) target_outcome1_t0)) (= target_bit_1_10_bool true)))
(assert
 (= (= (_ bv1 1) ((_ extract 11 11) target_outcome1_t0)) (= target_bit_1_11_bool true)))
(assert
 (= (= (_ bv1 1) ((_ extract 12 12) target_outcome1_t0)) (= target_bit_1_12_bool true)))
(assert
 (= (= (_ bv1 1) ((_ extract 13 13) target_outcome1_t0)) (= target_bit_1_13_bool true)))
(assert
 (= (= (_ bv1 1) ((_ extract 14 14) target_outcome1_t0)) (= target_bit_1_14_bool true)))
(assert
 (= (= (_ bv1 1) ((_ extract 15 15) target_outcome1_t0)) (= target_bit_1_15_bool true)))
(assert
 (= (= (_ bv1 1) ((_ extract 16 16) target_outcome1_t0)) (= target_bit_1_16_bool true)))
(assert
 (= (= (_ bv1 1) ((_ extract 17 17) target_outcome1_t0)) (= target_bit_1_17_bool true)))
(assert
 (= (= (_ bv1 1) ((_ extract 18 18) target_outcome1_t0)) (= target_bit_1_18_bool true)))
(assert
 (= (= (_ bv1 1) ((_ extract 19 19) target_outcome1_t0)) (= target_bit_1_19_bool true)))
(assert
 (= (= (_ bv1 1) ((_ extract 20 20) target_outcome1_t0)) (= target_bit_1_20_bool true)))
(assert
 (= (= (_ bv1 1) ((_ extract 21 21) target_outcome1_t0)) (= target_bit_1_21_bool true)))
(assert
 (= (= (_ bv1 1) ((_ extract 22 22) target_outcome1_t0)) (= target_bit_1_22_bool true)))
(assert
 (= (= (_ bv1 1) ((_ extract 23 23) target_outcome1_t0)) (= target_bit_1_23_bool true)))
(assert
 (= (= (_ bv1 1) ((_ extract 24 24) target_outcome1_t0)) (= target_bit_1_24_bool true)))
(assert
 (= (= (_ bv1 1) ((_ extract 25 25) target_outcome1_t0)) (= target_bit_1_25_bool true)))
(assert
 (= (= (_ bv1 1) ((_ extract 26 26) target_outcome1_t0)) (= target_bit_1_26_bool true)))
(assert
 (= (= (_ bv1 1) ((_ extract 27 27) target_outcome1_t0)) (= target_bit_1_27_bool true)))
(assert
 (= (= (_ bv1 1) ((_ extract 28 28) target_outcome1_t0)) (= target_bit_1_28_bool true)))
(assert
 (= (= (_ bv1 1) ((_ extract 29 29) target_outcome1_t0)) (= target_bit_1_29_bool true)))
(assert
 (= (= (_ bv1 1) ((_ extract 30 30) target_outcome1_t0)) (= target_bit_1_30_bool true)))
(check-sat)
(exit)